c  s27
c  7 inputs
c  4 outputs
c  2 inverters
c  8 gates ( 1 AND + 1 NAND + 2 ORs + 4 NORs + 1 BUFF )
cc labels (1 G2) (2 G7) (3 G1) (4 G6) (5 G0) (6 G3) (7 G5) (8 G13) (9 G11_EXTRA) (10 G10) (11 G12) (12 G15) (13 G14) (14 G8) (15 G16) (16 G9) (17 G11) (18 G17)
cc inputs 1 2 3 4 5 6 7 
cc outputs 18 10 9 8 
p cnf 18 30
17 18 0
-17 -18 0
17 7 16 0
-17 -7 0
-17 -16 0
-16 -15 -12 0
16 15 0
16 12 0
-15 6 14 0
15 -6 0
15 -14 0
14 -13 -4 0
-14 13 0
-14 4 0
5 13 0
-5 -13 0
-12 11 14 0
12 -11 0
12 -14 0
11 3 2 0
-11 -3 0
-11 -2 0
10 13 17 0
-10 -13 0
-10 -17 0
17 -9 0
-17 9 0
8 1 11 0
-8 -1 0
-8 -11 0
%
0